(set-option :produce-models true)
(set-logic QF_LRA)
(set-info :notes | Strip-packing problem.|)
(declare-fun x0 () Real)
(declare-fun y0 () Real)
(declare-fun x1 () Real)
(declare-fun y1 () Real)
(declare-fun x2 () Real)
(declare-fun y2 () Real)
(declare-fun x3 () Real)
(declare-fun y3 () Real)
(declare-fun x4 () Real)
(declare-fun y4 () Real)
(declare-fun x5 () Real)
(declare-fun y5 () Real)
(declare-fun x6 () Real)
(declare-fun y6 () Real)
(declare-fun x7 () Real)
(declare-fun y7 () Real)
(declare-fun x8 () Real)
(declare-fun y8 () Real)
(declare-fun x9 () Real)
(declare-fun y9 () Real)
(declare-fun x10 () Real)
(declare-fun y10 () Real)
(declare-fun x11 () Real)
(declare-fun y11 () Real)
(declare-fun x12 () Real)
(declare-fun y12 () Real)
(declare-fun x13 () Real)
(declare-fun y13 () Real)
(declare-fun x14 () Real)
(declare-fun y14 () Real)
(declare-fun z () Real)
(declare-fun c () Real)
(assert (and (= c z) (and (>= x0 0) 
(and (>= y0 0) 
(and (>= x1 0) 
(and (>= y1 0) 
(and (>= x2 0) 
(and (>= y2 0) 
(and (>= x3 0) 
(and (>= y3 0) 
(and (>= x4 0) 
(and (>= y4 0) 
(and (>= x5 0) 
(and (>= y5 0) 
(and (>= x6 0) 
(and (>= y6 0) 
(and (>= x7 0) 
(and (>= y7 0) 
(and (>= x8 0) 
(and (>= y8 0) 
(and (>= x9 0) 
(and (>= y9 0) 
(and (>= x10 0) 
(and (>= y10 0) 
(and (>= x11 0) 
(and (>= y11 0) 
(and (>= x12 0) 
(and (>= y12 0) 
(and (>= x13 0) 
(and (>= y13 0) 
(and (>= x14 0) 
(and (>= y14 0) 
(and (>= z 0) 
(and (>= c 0) 
(and (<= (+ x0 0.2659763978) z) 
(and (<= 0.8697869772 y0) 
(and (<= y0 1.0) 
(and (<= x0 (- 6.4302616171 0.2659763978)) 
(and (>= x0 0) 
(and (<= (+ x1 0.4686852482) z) 
(and (<= 0.7860924695 y1) 
(and (<= y1 1.0) 
(and (<= x1 (- 6.4302616171 0.4686852482)) 
(and (>= x1 0) 
(and (<= (+ x2 0.8528400818) z) 
(and (<= 0.7748370644 y2) 
(and (<= y2 1.0) 
(and (<= x2 (- 6.4302616171 0.8528400818)) 
(and (>= x2 0) 
(and (<= (+ x3 0.8142758261) z) 
(and (<= 0.769441391 y3) 
(and (<= y3 1.0) 
(and (<= x3 (- 6.4302616171 0.8142758261)) 
(and (>= x3 0) 
(and (<= (+ x4 0.985567607) z) 
(and (<= 0.7241631461 y4) 
(and (<= y4 1.0) 
(and (<= x4 (- 6.4302616171 0.985567607)) 
(and (>= x4 0) 
(and (<= (+ x5 0.7053432462) z) 
(and (<= 0.5684196716 y5) 
(and (<= y5 1.0) 
(and (<= x5 (- 6.4302616171 0.7053432462)) 
(and (>= x5 0) 
(and (<= (+ x6 0.1623434895) z) 
(and (<= 0.3915978521 y6) 
(and (<= y6 1.0) 
(and (<= x6 (- 6.4302616171 0.1623434895)) 
(and (>= x6 0) 
(and (<= (+ x7 0.7409915083) z) 
(and (<= 0.314742007 y7) 
(and (<= y7 1.0) 
(and (<= x7 (- 6.4302616171 0.7409915083)) 
(and (>= x7 0) 
(and (<= (+ x8 0.1736346599) z) 
(and (<= 0.2552498472 y8) 
(and (<= y8 1.0) 
(and (<= x8 (- 6.4302616171 0.1736346599)) 
(and (>= x8 0) 
(and (<= (+ x9 0.513214507) z) 
(and (<= 0.2449961487 y9) 
(and (<= y9 1.0) 
(and (<= x9 (- 6.4302616171 0.513214507)) 
(and (>= x9 0) 
(and (<= (+ x10 0.0506765832) z) 
(and (<= 0.2062294492 y10) 
(and (<= y10 1.0) 
(and (<= x10 (- 6.4302616171 0.0506765832)) 
(and (>= x10 0) 
(and (<= (+ x11 0.1902603888) z) 
(and (<= 0.193953162 y11) 
(and (<= y11 1.0) 
(and (<= x11 (- 6.4302616171 0.1902603888)) 
(and (>= x11 0) 
(and (<= (+ x12 0.315918082) z) 
(and (<= 0.1506638386 y12) 
(and (<= y12 1.0) 
(and (<= x12 (- 6.4302616171 0.315918082)) 
(and (>= x12 0) 
(and (<= (+ x13 0.7432920236) z) 
(and (<= 0.1500609872 y13) 
(and (<= y13 1.0) 
(and (<= x13 (- 6.4302616171 0.7432920236)) 
(and (>= x13 0) 
(and (<= (+ x14 0.8532896781) z) 
(and (<= 0.1287152708 y14) 
(and (<= y14 1.0) 
(and (<= x14 (- 6.4302616171 0.8532896781)) 
(and (>= x14 0) 
(and (<= c 6.4302616171) 
(and (or (<= (+ x0 0.2659763978) x1) (or (<= (+ x1 0.4686852482) x0) (or (>= (- y0 0.8697869772) y1) (or (>= (- y1 0.7860924695) y0))))) 
(and (or (<= (+ x0 0.2659763978) x2) (or (<= (+ x2 0.8528400818) x0) (or (>= (- y0 0.8697869772) y2) (or (>= (- y2 0.7748370644) y0))))) 
(and (or (<= (+ x0 0.2659763978) x3) (or (<= (+ x3 0.8142758261) x0) (or (>= (- y0 0.8697869772) y3) (or (>= (- y3 0.769441391) y0))))) 
(and (or (<= (+ x0 0.2659763978) x4) (or (<= (+ x4 0.985567607) x0) (or (>= (- y0 0.8697869772) y4) (or (>= (- y4 0.7241631461) y0))))) 
(and (or (<= (+ x0 0.2659763978) x5) (or (<= (+ x5 0.7053432462) x0) (or (>= (- y0 0.8697869772) y5) (or (>= (- y5 0.5684196716) y0))))) 
(and (or (<= (+ x0 0.2659763978) x6) (or (<= (+ x6 0.1623434895) x0) (or (>= (- y0 0.8697869772) y6) (or (>= (- y6 0.3915978521) y0))))) 
(and (or (<= (+ x0 0.2659763978) x7) (or (<= (+ x7 0.7409915083) x0) (or (>= (- y0 0.8697869772) y7) (or (>= (- y7 0.314742007) y0))))) 
(and (or (<= (+ x0 0.2659763978) x8) (or (<= (+ x8 0.1736346599) x0) (or (>= (- y0 0.8697869772) y8) (or (>= (- y8 0.2552498472) y0))))) 
(and (or (<= (+ x0 0.2659763978) x9) (or (<= (+ x9 0.513214507) x0) (or (>= (- y0 0.8697869772) y9) (or (>= (- y9 0.2449961487) y0))))) 
(and (or (<= (+ x0 0.2659763978) x10) (or (<= (+ x10 0.0506765832) x0) (or (>= (- y0 0.8697869772) y10) (or (>= (- y10 0.2062294492) y0))))) 
(and (or (<= (+ x0 0.2659763978) x11) (or (<= (+ x11 0.1902603888) x0) (or (>= (- y0 0.8697869772) y11) (or (>= (- y11 0.193953162) y0))))) 
(and (or (<= (+ x0 0.2659763978) x12) (or (<= (+ x12 0.315918082) x0) (or (>= (- y0 0.8697869772) y12) (or (>= (- y12 0.1506638386) y0))))) 
(and (or (<= (+ x0 0.2659763978) x13) (or (<= (+ x13 0.7432920236) x0) (or (>= (- y0 0.8697869772) y13) (or (>= (- y13 0.1500609872) y0))))) 
(and (or (<= (+ x0 0.2659763978) x14) (or (<= (+ x14 0.8532896781) x0) (or (>= (- y0 0.8697869772) y14) (or (>= (- y14 0.1287152708) y0))))) 
(and (or (<= (+ x1 0.4686852482) x2) (or (<= (+ x2 0.8528400818) x1) (or (>= (- y1 0.7860924695) y2) (or (>= (- y2 0.7748370644) y1))))) 
(and (or (<= (+ x1 0.4686852482) x3) (or (<= (+ x3 0.8142758261) x1) (or (>= (- y1 0.7860924695) y3) (or (>= (- y3 0.769441391) y1))))) 
(and (or (<= (+ x1 0.4686852482) x4) (or (<= (+ x4 0.985567607) x1) (or (>= (- y1 0.7860924695) y4) (or (>= (- y4 0.7241631461) y1))))) 
(and (or (<= (+ x1 0.4686852482) x5) (or (<= (+ x5 0.7053432462) x1) (or (>= (- y1 0.7860924695) y5) (or (>= (- y5 0.5684196716) y1))))) 
(and (or (<= (+ x1 0.4686852482) x6) (or (<= (+ x6 0.1623434895) x1) (or (>= (- y1 0.7860924695) y6) (or (>= (- y6 0.3915978521) y1))))) 
(and (or (<= (+ x1 0.4686852482) x7) (or (<= (+ x7 0.7409915083) x1) (or (>= (- y1 0.7860924695) y7) (or (>= (- y7 0.314742007) y1))))) 
(and (or (<= (+ x1 0.4686852482) x8) (or (<= (+ x8 0.1736346599) x1) (or (>= (- y1 0.7860924695) y8) (or (>= (- y8 0.2552498472) y1))))) 
(and (or (<= (+ x1 0.4686852482) x9) (or (<= (+ x9 0.513214507) x1) (or (>= (- y1 0.7860924695) y9) (or (>= (- y9 0.2449961487) y1))))) 
(and (or (<= (+ x1 0.4686852482) x10) (or (<= (+ x10 0.0506765832) x1) (or (>= (- y1 0.7860924695) y10) (or (>= (- y10 0.2062294492) y1))))) 
(and (or (<= (+ x1 0.4686852482) x11) (or (<= (+ x11 0.1902603888) x1) (or (>= (- y1 0.7860924695) y11) (or (>= (- y11 0.193953162) y1))))) 
(and (or (<= (+ x1 0.4686852482) x12) (or (<= (+ x12 0.315918082) x1) (or (>= (- y1 0.7860924695) y12) (or (>= (- y12 0.1506638386) y1))))) 
(and (or (<= (+ x1 0.4686852482) x13) (or (<= (+ x13 0.7432920236) x1) (or (>= (- y1 0.7860924695) y13) (or (>= (- y13 0.1500609872) y1))))) 
(and (or (<= (+ x1 0.4686852482) x14) (or (<= (+ x14 0.8532896781) x1) (or (>= (- y1 0.7860924695) y14) (or (>= (- y14 0.1287152708) y1))))) 
(and (or (<= (+ x2 0.8528400818) x3) (or (<= (+ x3 0.8142758261) x2) (or (>= (- y2 0.7748370644) y3) (or (>= (- y3 0.769441391) y2))))) 
(and (or (<= (+ x2 0.8528400818) x4) (or (<= (+ x4 0.985567607) x2) (or (>= (- y2 0.7748370644) y4) (or (>= (- y4 0.7241631461) y2))))) 
(and (or (<= (+ x2 0.8528400818) x5) (or (<= (+ x5 0.7053432462) x2) (or (>= (- y2 0.7748370644) y5) (or (>= (- y5 0.5684196716) y2))))) 
(and (or (<= (+ x2 0.8528400818) x6) (or (<= (+ x6 0.1623434895) x2) (or (>= (- y2 0.7748370644) y6) (or (>= (- y6 0.3915978521) y2))))) 
(and (or (<= (+ x2 0.8528400818) x7) (or (<= (+ x7 0.7409915083) x2) (or (>= (- y2 0.7748370644) y7) (or (>= (- y7 0.314742007) y2))))) 
(and (or (<= (+ x2 0.8528400818) x8) (or (<= (+ x8 0.1736346599) x2) (or (>= (- y2 0.7748370644) y8) (or (>= (- y8 0.2552498472) y2))))) 
(and (or (<= (+ x2 0.8528400818) x9) (or (<= (+ x9 0.513214507) x2) (or (>= (- y2 0.7748370644) y9) (or (>= (- y9 0.2449961487) y2))))) 
(and (or (<= (+ x2 0.8528400818) x10) (or (<= (+ x10 0.0506765832) x2) (or (>= (- y2 0.7748370644) y10) (or (>= (- y10 0.2062294492) y2))))) 
(and (or (<= (+ x2 0.8528400818) x11) (or (<= (+ x11 0.1902603888) x2) (or (>= (- y2 0.7748370644) y11) (or (>= (- y11 0.193953162) y2))))) 
(and (or (<= (+ x2 0.8528400818) x12) (or (<= (+ x12 0.315918082) x2) (or (>= (- y2 0.7748370644) y12) (or (>= (- y12 0.1506638386) y2))))) 
(and (or (<= (+ x2 0.8528400818) x13) (or (<= (+ x13 0.7432920236) x2) (or (>= (- y2 0.7748370644) y13) (or (>= (- y13 0.1500609872) y2))))) 
(and (or (<= (+ x2 0.8528400818) x14) (or (<= (+ x14 0.8532896781) x2) (or (>= (- y2 0.7748370644) y14) (or (>= (- y14 0.1287152708) y2))))) 
(and (or (<= (+ x3 0.8142758261) x4) (or (<= (+ x4 0.985567607) x3) (or (>= (- y3 0.769441391) y4) (or (>= (- y4 0.7241631461) y3))))) 
(and (or (<= (+ x3 0.8142758261) x5) (or (<= (+ x5 0.7053432462) x3) (or (>= (- y3 0.769441391) y5) (or (>= (- y5 0.5684196716) y3))))) 
(and (or (<= (+ x3 0.8142758261) x6) (or (<= (+ x6 0.1623434895) x3) (or (>= (- y3 0.769441391) y6) (or (>= (- y6 0.3915978521) y3))))) 
(and (or (<= (+ x3 0.8142758261) x7) (or (<= (+ x7 0.7409915083) x3) (or (>= (- y3 0.769441391) y7) (or (>= (- y7 0.314742007) y3))))) 
(and (or (<= (+ x3 0.8142758261) x8) (or (<= (+ x8 0.1736346599) x3) (or (>= (- y3 0.769441391) y8) (or (>= (- y8 0.2552498472) y3))))) 
(and (or (<= (+ x3 0.8142758261) x9) (or (<= (+ x9 0.513214507) x3) (or (>= (- y3 0.769441391) y9) (or (>= (- y9 0.2449961487) y3))))) 
(and (or (<= (+ x3 0.8142758261) x10) (or (<= (+ x10 0.0506765832) x3) (or (>= (- y3 0.769441391) y10) (or (>= (- y10 0.2062294492) y3))))) 
(and (or (<= (+ x3 0.8142758261) x11) (or (<= (+ x11 0.1902603888) x3) (or (>= (- y3 0.769441391) y11) (or (>= (- y11 0.193953162) y3))))) 
(and (or (<= (+ x3 0.8142758261) x12) (or (<= (+ x12 0.315918082) x3) (or (>= (- y3 0.769441391) y12) (or (>= (- y12 0.1506638386) y3))))) 
(and (or (<= (+ x3 0.8142758261) x13) (or (<= (+ x13 0.7432920236) x3) (or (>= (- y3 0.769441391) y13) (or (>= (- y13 0.1500609872) y3))))) 
(and (or (<= (+ x3 0.8142758261) x14) (or (<= (+ x14 0.8532896781) x3) (or (>= (- y3 0.769441391) y14) (or (>= (- y14 0.1287152708) y3))))) 
(and (or (<= (+ x4 0.985567607) x5) (or (<= (+ x5 0.7053432462) x4) (or (>= (- y4 0.7241631461) y5) (or (>= (- y5 0.5684196716) y4))))) 
(and (or (<= (+ x4 0.985567607) x6) (or (<= (+ x6 0.1623434895) x4) (or (>= (- y4 0.7241631461) y6) (or (>= (- y6 0.3915978521) y4))))) 
(and (or (<= (+ x4 0.985567607) x7) (or (<= (+ x7 0.7409915083) x4) (or (>= (- y4 0.7241631461) y7) (or (>= (- y7 0.314742007) y4))))) 
(and (or (<= (+ x4 0.985567607) x8) (or (<= (+ x8 0.1736346599) x4) (or (>= (- y4 0.7241631461) y8) (or (>= (- y8 0.2552498472) y4))))) 
(and (or (<= (+ x4 0.985567607) x9) (or (<= (+ x9 0.513214507) x4) (or (>= (- y4 0.7241631461) y9) (or (>= (- y9 0.2449961487) y4))))) 
(and (or (<= (+ x4 0.985567607) x10) (or (<= (+ x10 0.0506765832) x4) (or (>= (- y4 0.7241631461) y10) (or (>= (- y10 0.2062294492) y4))))) 
(and (or (<= (+ x4 0.985567607) x11) (or (<= (+ x11 0.1902603888) x4) (or (>= (- y4 0.7241631461) y11) (or (>= (- y11 0.193953162) y4))))) 
(and (or (<= (+ x4 0.985567607) x12) (or (<= (+ x12 0.315918082) x4) (or (>= (- y4 0.7241631461) y12) (or (>= (- y12 0.1506638386) y4))))) 
(and (or (<= (+ x4 0.985567607) x13) (or (<= (+ x13 0.7432920236) x4) (or (>= (- y4 0.7241631461) y13) (or (>= (- y13 0.1500609872) y4))))) 
(and (or (<= (+ x4 0.985567607) x14) (or (<= (+ x14 0.8532896781) x4) (or (>= (- y4 0.7241631461) y14) (or (>= (- y14 0.1287152708) y4))))) 
(and (or (<= (+ x5 0.7053432462) x6) (or (<= (+ x6 0.1623434895) x5) (or (>= (- y5 0.5684196716) y6) (or (>= (- y6 0.3915978521) y5))))) 
(and (or (<= (+ x5 0.7053432462) x7) (or (<= (+ x7 0.7409915083) x5) (or (>= (- y5 0.5684196716) y7) (or (>= (- y7 0.314742007) y5))))) 
(and (or (<= (+ x5 0.7053432462) x8) (or (<= (+ x8 0.1736346599) x5) (or (>= (- y5 0.5684196716) y8) (or (>= (- y8 0.2552498472) y5))))) 
(and (or (<= (+ x5 0.7053432462) x9) (or (<= (+ x9 0.513214507) x5) (or (>= (- y5 0.5684196716) y9) (or (>= (- y9 0.2449961487) y5))))) 
(and (or (<= (+ x5 0.7053432462) x10) (or (<= (+ x10 0.0506765832) x5) (or (>= (- y5 0.5684196716) y10) (or (>= (- y10 0.2062294492) y5))))) 
(and (or (<= (+ x5 0.7053432462) x11) (or (<= (+ x11 0.1902603888) x5) (or (>= (- y5 0.5684196716) y11) (or (>= (- y11 0.193953162) y5))))) 
(and (or (<= (+ x5 0.7053432462) x12) (or (<= (+ x12 0.315918082) x5) (or (>= (- y5 0.5684196716) y12) (or (>= (- y12 0.1506638386) y5))))) 
(and (or (<= (+ x5 0.7053432462) x13) (or (<= (+ x13 0.7432920236) x5) (or (>= (- y5 0.5684196716) y13) (or (>= (- y13 0.1500609872) y5))))) 
(and (or (<= (+ x5 0.7053432462) x14) (or (<= (+ x14 0.8532896781) x5) (or (>= (- y5 0.5684196716) y14) (or (>= (- y14 0.1287152708) y5))))) 
(and (or (<= (+ x6 0.1623434895) x7) (or (<= (+ x7 0.7409915083) x6) (or (>= (- y6 0.3915978521) y7) (or (>= (- y7 0.314742007) y6))))) 
(and (or (<= (+ x6 0.1623434895) x8) (or (<= (+ x8 0.1736346599) x6) (or (>= (- y6 0.3915978521) y8) (or (>= (- y8 0.2552498472) y6))))) 
(and (or (<= (+ x6 0.1623434895) x9) (or (<= (+ x9 0.513214507) x6) (or (>= (- y6 0.3915978521) y9) (or (>= (- y9 0.2449961487) y6))))) 
(and (or (<= (+ x6 0.1623434895) x10) (or (<= (+ x10 0.0506765832) x6) (or (>= (- y6 0.3915978521) y10) (or (>= (- y10 0.2062294492) y6))))) 
(and (or (<= (+ x6 0.1623434895) x11) (or (<= (+ x11 0.1902603888) x6) (or (>= (- y6 0.3915978521) y11) (or (>= (- y11 0.193953162) y6))))) 
(and (or (<= (+ x6 0.1623434895) x12) (or (<= (+ x12 0.315918082) x6) (or (>= (- y6 0.3915978521) y12) (or (>= (- y12 0.1506638386) y6))))) 
(and (or (<= (+ x6 0.1623434895) x13) (or (<= (+ x13 0.7432920236) x6) (or (>= (- y6 0.3915978521) y13) (or (>= (- y13 0.1500609872) y6))))) 
(and (or (<= (+ x6 0.1623434895) x14) (or (<= (+ x14 0.8532896781) x6) (or (>= (- y6 0.3915978521) y14) (or (>= (- y14 0.1287152708) y6))))) 
(and (or (<= (+ x7 0.7409915083) x8) (or (<= (+ x8 0.1736346599) x7) (or (>= (- y7 0.314742007) y8) (or (>= (- y8 0.2552498472) y7))))) 
(and (or (<= (+ x7 0.7409915083) x9) (or (<= (+ x9 0.513214507) x7) (or (>= (- y7 0.314742007) y9) (or (>= (- y9 0.2449961487) y7))))) 
(and (or (<= (+ x7 0.7409915083) x10) (or (<= (+ x10 0.0506765832) x7) (or (>= (- y7 0.314742007) y10) (or (>= (- y10 0.2062294492) y7))))) 
(and (or (<= (+ x7 0.7409915083) x11) (or (<= (+ x11 0.1902603888) x7) (or (>= (- y7 0.314742007) y11) (or (>= (- y11 0.193953162) y7))))) 
(and (or (<= (+ x7 0.7409915083) x12) (or (<= (+ x12 0.315918082) x7) (or (>= (- y7 0.314742007) y12) (or (>= (- y12 0.1506638386) y7))))) 
(and (or (<= (+ x7 0.7409915083) x13) (or (<= (+ x13 0.7432920236) x7) (or (>= (- y7 0.314742007) y13) (or (>= (- y13 0.1500609872) y7))))) 
(and (or (<= (+ x7 0.7409915083) x14) (or (<= (+ x14 0.8532896781) x7) (or (>= (- y7 0.314742007) y14) (or (>= (- y14 0.1287152708) y7))))) 
(and (or (<= (+ x8 0.1736346599) x9) (or (<= (+ x9 0.513214507) x8) (or (>= (- y8 0.2552498472) y9) (or (>= (- y9 0.2449961487) y8))))) 
(and (or (<= (+ x8 0.1736346599) x10) (or (<= (+ x10 0.0506765832) x8) (or (>= (- y8 0.2552498472) y10) (or (>= (- y10 0.2062294492) y8))))) 
(and (or (<= (+ x8 0.1736346599) x11) (or (<= (+ x11 0.1902603888) x8) (or (>= (- y8 0.2552498472) y11) (or (>= (- y11 0.193953162) y8))))) 
(and (or (<= (+ x8 0.1736346599) x12) (or (<= (+ x12 0.315918082) x8) (or (>= (- y8 0.2552498472) y12) (or (>= (- y12 0.1506638386) y8))))) 
(and (or (<= (+ x8 0.1736346599) x13) (or (<= (+ x13 0.7432920236) x8) (or (>= (- y8 0.2552498472) y13) (or (>= (- y13 0.1500609872) y8))))) 
(and (or (<= (+ x8 0.1736346599) x14) (or (<= (+ x14 0.8532896781) x8) (or (>= (- y8 0.2552498472) y14) (or (>= (- y14 0.1287152708) y8))))) 
(and (or (<= (+ x9 0.513214507) x10) (or (<= (+ x10 0.0506765832) x9) (or (>= (- y9 0.2449961487) y10) (or (>= (- y10 0.2062294492) y9))))) 
(and (or (<= (+ x9 0.513214507) x11) (or (<= (+ x11 0.1902603888) x9) (or (>= (- y9 0.2449961487) y11) (or (>= (- y11 0.193953162) y9))))) 
(and (or (<= (+ x9 0.513214507) x12) (or (<= (+ x12 0.315918082) x9) (or (>= (- y9 0.2449961487) y12) (or (>= (- y12 0.1506638386) y9))))) 
(and (or (<= (+ x9 0.513214507) x13) (or (<= (+ x13 0.7432920236) x9) (or (>= (- y9 0.2449961487) y13) (or (>= (- y13 0.1500609872) y9))))) 
(and (or (<= (+ x9 0.513214507) x14) (or (<= (+ x14 0.8532896781) x9) (or (>= (- y9 0.2449961487) y14) (or (>= (- y14 0.1287152708) y9))))) 
(and (or (<= (+ x10 0.0506765832) x11) (or (<= (+ x11 0.1902603888) x10) (or (>= (- y10 0.2062294492) y11) (or (>= (- y11 0.193953162) y10))))) 
(and (or (<= (+ x10 0.0506765832) x12) (or (<= (+ x12 0.315918082) x10) (or (>= (- y10 0.2062294492) y12) (or (>= (- y12 0.1506638386) y10))))) 
(and (or (<= (+ x10 0.0506765832) x13) (or (<= (+ x13 0.7432920236) x10) (or (>= (- y10 0.2062294492) y13) (or (>= (- y13 0.1500609872) y10))))) 
(and (or (<= (+ x10 0.0506765832) x14) (or (<= (+ x14 0.8532896781) x10) (or (>= (- y10 0.2062294492) y14) (or (>= (- y14 0.1287152708) y10))))) 
(and (or (<= (+ x11 0.1902603888) x12) (or (<= (+ x12 0.315918082) x11) (or (>= (- y11 0.193953162) y12) (or (>= (- y12 0.1506638386) y11))))) 
(and (or (<= (+ x11 0.1902603888) x13) (or (<= (+ x13 0.7432920236) x11) (or (>= (- y11 0.193953162) y13) (or (>= (- y13 0.1500609872) y11))))) 
(and (or (<= (+ x11 0.1902603888) x14) (or (<= (+ x14 0.8532896781) x11) (or (>= (- y11 0.193953162) y14) (or (>= (- y14 0.1287152708) y11))))) 
(and (or (<= (+ x12 0.315918082) x13) (or (<= (+ x13 0.7432920236) x12) (or (>= (- y12 0.1506638386) y13) (or (>= (- y13 0.1500609872) y12))))) 
(and (or (<= (+ x12 0.315918082) x14) (or (<= (+ x14 0.8532896781) x12) (or (>= (- y12 0.1506638386) y14) (or (>= (- y14 0.1287152708) y12))))) 
(and (or (<= (+ x13 0.7432920236) x14) (or (<= (+ x14 0.8532896781) x13) (or (>= (- y13 0.1500609872) y14) (or (>= (- y14 0.1287152708) y13))))) )))))))))))))))))))))))))))))))))))))))))))))))))))))))))))))))))))))))))))))))))))))))))))))))))))))))))))))))))))))))))))))))))))))))))))))))))))))))))))))))))))))))))))))))))))))))))))))))))))))))))))))))))))))))
(minimize c)
(check-sat)
(get-objectives)
(exit)
